proyfinal/src/viki/013/experimentInOfficeAgust.take6.output/98e66b42-2dc7-4fc3-8ac9-ea0664ce9f4e.als.dat
{'cnf.clauses': '118081',
 'cnf.totvars': '69608',
 'conflict literals': '32',
 'conflicts': '12',
 'decisions': '3515',
 'memused.mb': '14.89',
 'outcome': 'UNSAT',
 'propagations': '26074',
 'restarts': '1',
 'solver.msecs': 26,
 'task.msecs': 66}
