proyfinal/src/viki/013/experimentInOfficeAgust.take6.output/98e66b42-2dc7-4fc3-8ac9-ea0664ce9f4e.als.out
Reading from standard input... Use '--help' for help.
============================[ Problem Statistics ]=============================
|                                                                             |
|  Number of variables:         69608                                         |
|  Number of clauses:          118081                                         |
|  Parse time:                   0.02 s                                       |
|                                                                             |
============================[ Search Statistics ]==============================
| Conflicts |          ORIGINAL         |          LEARNT          | Progress |
|           |    Vars  Clauses Literals |    Limit  Clauses Lit/Cl |          |
===============================================================================
===============================================================================
restarts              : 1
conflicts             : 12             (451 /sec)
decisions             : 3515           (0.00 % random) (132073 /sec)
propagations          : 26074          (979710 /sec)
conflict literals     : 32             (0.00 % deleted)
Memory used           : 14.89 MB
CPU time              : 0.026614 s

UNSATISFIABLE
